13188 : 18231 14836 
18231 : 750 13188 
750 : 2849 18231 
6154 : 14836 2172 
22046 : 17381 
17381 : 22046 4300 3973 
4300 : 17381 8257 
8257 : 4300 18895 
15654 : 2112 2849 
19437 : 14981 
2849 : 15654 750 
2628 : 3973 2172 
18895 : 8257 
2112 : 14981 15654 
14836 : 13188 6154 
14981 : 19437 2112 
3973 : 17381 2628 
2172 : 2628 6154 
19437 2849 18895 2172 22046 
